47
1 0 51
2 0 37
2 1 7
3 0 7
3 1 18
3 2 20
4 0 20
4 1 51
4 2 8
4 3 34
5 0 20
5 1 15
5 2 41
5 3 39
5 4 30
6 0 44
6 1 35
6 2 26
6 3 51
6 4 22
6 5 50
7 0 38
7 1 36
7 2 23
7 3 28
7 4 45
7 5 1
7 6 6
8 0 33
8 1 44
8 2 38
8 3 42
8 4 42
8 5 2
8 6 40
8 7 2
9 0 17
9 1 51
9 2 14
9 3 40
9 4 26
9 5 37
9 6 47
9 7 3
9 8 53
10 0 49
10 1 29
10 2 52
10 3 15
10 4 28
10 5 11
10 6 5
10 7 27
10 8 52
10 9 15
11 0 39
11 1 51
11 2 29
11 3 6
11 4 10
11 5 26
11 6 32
11 7 50
11 8 14
11 9 24
11 10 36
12 0 35
12 1 9
12 2 39
12 3 6
12 4 49
12 5 4
12 6 2
12 7 22
12 8 48
12 9 33
12 10 53
12 11 30
13 0 2
13 1 28
13 2 44
13 3 4
13 4 38
13 5 23
13 6 27
13 7 25
13 8 54
13 9 31
13 10 15
13 11 11
13 12 48
14 0 38
14 1 41
14 2 46
14 3 3
14 4 44
14 5 23
14 6 21
14 7 45
14 8 6
14 9 51
14 10 9
14 11 42
14 12 29
14 13 43
15 0 13
15 1 13
15 2 37
15 3 46
15 4 23
15 5 3
15 6 6
15 7 9
15 8 52
15 9 30
15 10 5
15 11 13
15 12 11
15 13 54
15 14 26
16 0 1
16 1 48
16 2 30
16 3 16
16 4 41
16 5 52
16 6 14
16 7 54
16 8 36
16 9 39
16 10 27
16 11 41
16 12 23
16 13 11
16 14 10
16 15 7
17 0 23
17 1 36
17 2 22
17 3 47
17 4 19
17 5 47
17 6 21
17 7 44
17 8 6
17 9 16
17 10 1
17 11 9
17 12 23
17 13 35
17 14 10
17 15 29
17 16 39
18 0 19
18 1 46
18 2 30
18 3 52
18 4 31
18 5 21
18 6 52
18 7 27
18 8 15
18 9 47
18 10 24
18 11 18
18 12 18
18 13 2
18 14 30
18 15 5
18 16 30
18 17 18
19 0 45
19 1 43
19 2 5
19 3 20
19 4 26
19 5 8
19 6 49
19 7 13
19 8 20
19 9 51
19 10 52
19 11 51
19 12 32
19 13 47
19 14 20
19 15 46
19 16 16
19 17 34
19 18 45
20 0 41
20 1 44
20 2 17
20 3 50
20 4 52
20 5 18
20 6 25
20 7 5
20 8 34
20 9 24
20 10 16
20 11 21
20 12 12
20 13 33
20 14 37
20 15 30
20 16 39
20 17 52
20 18 13
20 19 33
21 0 3
21 1 20
21 2 35
21 3 16
21 4 50
21 5 34
21 6 35
21 7 51
21 8 43
21 9 44
21 10 40
21 11 39
21 12 47
21 13 40
21 14 18
21 15 10
21 16 21
21 17 36
21 18 50
21 19 31
21 20 26
22 0 37
22 1 30
22 2 31
22 3 15
22 4 46
22 5 32
22 6 3
22 7 11
22 8 23
22 9 35
22 10 22
22 11 42
22 12 3
22 13 5
22 14 2
22 15 49
22 16 54
22 17 35
22 18 38
22 19 45
22 20 14
22 21 36
23 0 16
23 1 15
23 2 25
23 3 28
23 4 22
23 5 7
23 6 3
23 7 52
23 8 44
23 9 2
23 10 37
23 11 15
23 12 37
23 13 28
23 14 11
23 15 50
23 16 12
23 17 31
23 18 35
23 19 35
23 20 44
23 21 53
23 22 45
24 0 23
24 1 10
24 2 26
24 3 40
24 4 40
24 5 2
24 6 43
24 7 42
24 8 2
24 9 54
24 10 16
24 11 21
24 12 12
24 13 5
24 14 14
24 15 40
24 16 39
24 17 3
24 18 25
24 19 34
24 20 26
24 21 44
24 22 29
24 23 26
25 0 38
25 1 35
25 2 12
25 3 14
25 4 20
25 5 9
25 6 13
25 7 46
25 8 54
25 9 29
25 10 45
25 11 44
25 12 44
25 13 26
25 14 1
25 15 51
25 16 22
25 17 48
25 18 47
25 19 50
25 20 53
25 21 13
25 22 45
25 23 49
25 24 3
26 0 52
26 1 25
26 2 44
26 3 33
26 4 43
26 5 19
26 6 54
26 7 15
26 8 10
26 9 54
26 10 4
26 11 29
26 12 48
26 13 54
26 14 20
26 15 18
26 16 54
26 17 35
26 18 21
26 19 29
26 20 1
26 21 4
26 22 49
26 23 10
26 24 54
26 25 13
27 0 45
27 1 22
27 2 26
27 3 31
27 4 49
27 5 14
27 6 1
27 7 4
27 8 50
27 9 15
27 10 26
27 11 3
27 12 46
27 13 12
27 14 19
27 15 2
27 16 16
27 17 14
27 18 40
27 19 12
27 20 51
27 21 40
27 22 47
27 23 40
27 24 10
27 25 11
27 26 13
28 0 30
28 1 41
28 2 16
28 3 31
28 4 44
28 5 21
28 6 45
28 7 29
28 8 37
28 9 34
28 10 50
28 11 38
28 12 19
28 13 13
28 14 6
28 15 4
28 16 38
28 17 12
28 18 3
28 19 23
28 20 25
28 21 48
28 22 45
28 23 6
28 24 16
28 25 45
28 26 12
28 27 9
29 0 48
29 1 35
29 2 23
29 3 39
29 4 51
29 5 43
29 6 54
29 7 17
29 8 50
29 9 41
29 10 10
29 11 18
29 12 36
29 13 37
29 14 34
29 15 44
29 16 16
29 17 53
29 18 25
29 19 20
29 20 3
29 21 30
29 22 53
29 23 48
29 24 12
29 25 42
29 26 26
29 27 19
29 28 41
30 0 6
30 1 10
30 2 43
30 3 35
30 4 20
30 5 1
30 6 17
30 7 13
30 8 42
30 9 38
30 10 41
30 11 32
30 12 14
30 13 38
30 14 23
30 15 3
30 16 41
30 17 44
30 18 40
30 19 25
30 20 32
30 21 12
30 22 1
30 23 22
30 24 54
30 25 40
30 26 32
30 27 47
30 28 10
30 29 9
31 0 54
31 1 6
31 2 5
31 3 14
31 4 51
31 5 8
31 6 12
31 7 36
31 8 18
31 9 48
31 10 13
31 11 36
31 12 23
31 13 16
31 14 31
31 15 42
31 16 7
31 17 12
31 18 46
31 19 26
31 20 42
31 21 49
31 22 1
31 23 35
31 24 48
31 25 14
31 26 29
31 27 21
31 28 8
31 29 17
31 30 50
32 0 22
32 1 3
32 2 27
32 3 32
32 4 2
32 5 18
32 6 42
32 7 40
32 8 44
32 9 50
32 10 26
32 11 39
32 12 48
32 13 15
32 14 46
32 15 8
32 16 37
32 17 53
32 18 6
32 19 33
32 20 1
32 21 19
32 22 47
32 23 52
32 24 2
32 25 13
32 26 12
32 27 21
32 28 2
32 29 4
32 30 34
32 31 32
33 0 51
33 1 16
33 2 36
33 3 5
33 4 49
33 5 23
33 6 1
33 7 20
33 8 21
33 9 20
33 10 29
33 11 8
33 12 44
33 13 42
33 14 1
33 15 20
33 16 23
33 17 46
33 18 5
33 19 28
33 20 53
33 21 20
33 22 30
33 23 9
33 24 32
33 25 6
33 26 39
33 27 10
33 28 34
33 29 11
33 30 44
33 31 51
33 32 37
34 0 32
34 1 30
34 2 11
34 3 41
34 4 46
34 5 17
34 6 40
34 7 30
34 8 13
34 9 19
34 10 53
34 11 5
34 12 22
34 13 25
34 14 50
34 15 22
34 16 19
34 17 39
34 18 15
34 19 46
34 20 21
34 21 53
34 22 38
34 23 10
34 24 27
34 25 42
34 26 18
34 27 42
34 28 48
34 29 31
34 30 7
34 31 17
34 32 3
34 33 13
35 0 42
35 1 48
35 2 28
35 3 36
35 4 53
35 5 30
35 6 43
35 7 36
35 8 33
35 9 25
35 10 41
35 11 24
35 12 54
35 13 19
35 14 54
35 15 26
35 16 1
35 17 47
35 18 4
35 19 37
35 20 16
35 21 7
35 22 38
35 23 48
35 24 14
35 25 27
35 26 17
35 27 7
35 28 54
35 29 10
35 30 25
35 31 31
35 32 16
35 33 35
35 34 1
36 0 32
36 1 50
36 2 25
36 3 11
36 4 31
36 5 32
36 6 24
36 7 48
36 8 30
36 9 34
36 10 51
36 11 33
36 12 32
36 13 35
36 14 39
36 15 15
36 16 29
36 17 30
36 18 52
36 19 34
36 20 34
36 21 38
36 22 54
36 23 43
36 24 52
36 25 19
36 26 5
36 27 27
36 28 5
36 29 6
36 30 16
36 31 48
36 32 43
36 33 27
36 34 54
36 35 48
37 0 10
37 1 48
37 2 7
37 3 35
37 4 33
37 5 53
37 6 40
37 7 28
37 8 44
37 9 2
37 10 24
37 11 25
37 12 30
37 13 12
37 14 12
37 15 53
37 16 33
37 17 53
37 18 26
37 19 52
37 20 35
37 21 13
37 22 1
37 23 52
37 24 38
37 25 40
37 26 41
37 27 45
37 28 54
37 29 50
37 30 12
37 31 38
37 32 27
37 33 13
37 34 54
37 35 47
37 36 20
38 0 32
38 1 47
38 2 48
38 3 8
38 4 20
38 5 3
38 6 52
38 7 33
38 8 31
38 9 14
38 10 35
38 11 8
38 12 15
38 13 48
38 14 11
38 15 31
38 16 14
38 17 50
38 18 9
38 19 28
38 20 6
38 21 24
38 22 4
38 23 39
38 24 1
38 25 23
38 26 19
38 27 7
38 28 19
38 29 37
38 30 40
38 31 17
38 32 34
38 33 44
38 34 51
38 35 41
38 36 25
38 37 27
39 0 9
39 1 16
39 2 30
39 3 52
39 4 47
39 5 7
39 6 50
39 7 39
39 8 42
39 9 40
39 10 42
39 11 29
39 12 6
39 13 33
39 14 50
39 15 52
39 16 32
39 17 2
39 18 26
39 19 45
39 20 27
39 21 6
39 22 15
39 23 40
39 24 52
39 25 23
39 26 15
39 27 12
39 28 16
39 29 33
39 30 49
39 31 18
39 32 53
39 33 33
39 34 10
39 35 31
39 36 36
39 37 37
39 38 37
40 0 44
40 1 13
40 2 32
40 3 16
40 4 6
40 5 45
40 6 44
40 7 45
40 8 53
40 9 23
40 10 18
40 11 11
40 12 21
40 13 12
40 14 37
40 15 32
40 16 24
40 17 10
40 18 54
40 19 49
40 20 38
40 21 12
40 22 18
40 23 28
40 24 25
40 25 48
40 26 45
40 27 41
40 28 27
40 29 51
40 30 5
40 31 5
40 32 4
40 33 32
40 34 38
40 35 36
40 36 15
40 37 35
40 38 26
40 39 44
41 0 51
41 1 49
41 2 11
41 3 24
41 4 34
41 5 10
41 6 4
41 7 40
41 8 31
41 9 10
41 10 21
41 11 23
41 12 31
41 13 50
41 14 51
41 15 26
41 16 3
41 17 24
41 18 14
41 19 8
41 20 1
41 21 50
41 22 24
41 23 31
41 24 16
41 25 37
41 26 36
41 27 22
41 28 40
41 29 27
41 30 16
41 31 20
41 32 47
41 33 3
41 34 6
41 35 15
41 36 18
41 37 51
41 38 11
41 39 16
41 40 9
42 0 8
42 1 45
42 2 29
42 3 33
42 4 46
42 5 39
42 6 38
42 7 12
42 8 20
42 9 52
42 10 7
42 11 7
42 12 19
42 13 27
42 14 48
42 15 54
42 16 23
42 17 42
42 18 52
42 19 5
42 20 6
42 21 2
42 22 46
42 23 9
42 24 39
42 25 10
42 26 38
42 27 20
42 28 14
42 29 34
42 30 15
42 31 17
42 32 1
42 33 10
42 34 53
42 35 50
42 36 49
42 37 49
42 38 5
42 39 45
42 40 54
42 41 32
43 0 31
43 1 16
43 2 43
43 3 26
43 4 20
43 5 5
43 6 4
43 7 49
43 8 1
43 9 33
43 10 24
43 11 18
43 12 43
43 13 20
43 14 51
43 15 3
43 16 5
43 17 27
43 18 18
43 19 9
43 20 19
43 21 53
43 22 37
43 23 39
43 24 50
43 25 35
43 26 45
43 27 25
43 28 43
43 29 14
43 30 24
43 31 13
43 32 45
43 33 13
43 34 51
43 35 43
43 36 8
43 37 39
43 38 27
43 39 10
43 40 38
43 41 54
43 42 42
44 0 27
44 1 3
44 2 49
44 3 13
44 4 35
44 5 17
44 6 6
44 7 6
44 8 39
44 9 12
44 10 39
44 11 20
44 12 49
44 13 7
44 14 43
44 15 20
44 16 53
44 17 29
44 18 14
44 19 48
44 20 2
44 21 50
44 22 41
44 23 43
44 24 45
44 25 27
44 26 2
44 27 29
44 28 47
44 29 53
44 30 13
44 31 10
44 32 14
44 33 14
44 34 52
44 35 47
44 36 46
44 37 6
44 38 2
44 39 31
44 40 8
44 41 42
44 42 27
44 43 44
45 0 11
45 1 14
45 2 52
45 3 35
45 4 17
45 5 45
45 6 33
45 7 52
45 8 6
45 9 47
45 10 21
45 11 6
45 12 41
45 13 5
45 14 2
45 15 10
45 16 4
45 17 46
45 18 16
45 19 35
45 20 32
45 21 52
45 22 11
45 23 3
45 24 22
45 25 20
45 26 17
45 27 53
45 28 49
45 29 29
45 30 25
45 31 33
45 32 46
45 33 12
45 34 10
45 35 22
45 36 24
45 37 20
45 38 1
45 39 49
45 40 14
45 41 53
45 42 18
45 43 29
45 44 18
46 0 15
46 1 13
46 2 52
46 3 31
46 4 35
46 5 51
46 6 27
46 7 25
46 8 52
46 9 30
46 10 21
46 11 35
46 12 20
46 13 52
46 14 11
46 15 51
46 16 42
46 17 39
46 18 25
46 19 32
46 20 21
46 21 35
46 22 16
46 23 15
46 24 10
46 25 45
46 26 49
46 27 44
46 28 4
46 29 8
46 30 51
46 31 33
46 32 19
46 33 28
46 34 5
46 35 31
46 36 20
46 37 28
46 38 28
46 39 32
46 40 34
46 41 51
46 42 1
46 43 17
46 44 5
46 45 42
